N = 10;
H = 6;
T = 2;

avail = array3d(1..N, 1..H, 1..T, [4, 1, 2, 7, 3, 9, 2, 6, 4, 2, 7, 4, 7, 0, 1, 10, 4, 1, 4, 6, 4, 0, 7, 10, 9, 9, 0, 2, 5, 0, 3, 5, 8, 3, 5, 6, 5, 1, 3, 3, 9, 1, 10, 10, 9, 8, 2, 6, 6, 1, 2, 6, 6, 9, 10, 8, 3, 1, 2, 0, 0, 8, 10, 8, 4, 1, 10, 0, 0, 3, 1, 2, 2, 8, 5, 9, 10, 2, 9, 7, 10, 2, 4, 10, 1, 9, 6, 8, 3, 5, 1, 8, 2, 8, 7, 2, 8, 2, 10, 5, 5, 1, 2, 8, 6, 3, 7, 6, 2, 1, 4, 9, 7, 7, 9, 8, 5, 2, 9, 4]);

r = array2d(1..H, 1..T, [2, 3, 3, 5, 3, 1, 2, 1, 3, 2, 2, 3]);
